[MD]
steps                   100000
stepsize                1
temperature             300
bath_coupling           100
separate_scaling        on
lrf                     on

[cut-offs]
q_atom                    99
solute_solute             10
solvent_solvent           10
solute_solvent            10

[intervals]
non_bond                 30
output                   1000
trajectory		 500

[lambdas]
1.0 0.0

[files]
restart		relax_008.re
restraint	relax_008.re.rest
topology        maoa_E446K.top
final           relax_009.re
trajectory	relax_009.dcd
fep             mao_sro_E446K.fep

[sequence_restraints]
# FAC Q
6353 6363        0.5   0   0
6365 6365        0.5   0   0
6367 6370        0.5   0   0
6400 6401        0.5   0   0
6407 6407        0.5   0   0  
# SRO
8278 8302        0.5   0   0

[distance_restraints]
# donor-acceptor N8-C8
6360 8278  3.0 3.0 10.0 0
